
******************************************************************************
This program contains Ipopt, a library for large-scale nonlinear optimization.
 Ipopt is released as open source code under the Eclipse Public License (EPL).
         For more information visit http://projects.coin-or.org/Ipopt

This version of Ipopt was compiled from source code available at
    https://github.com/IDAES/Ipopt as part of the Institute for the Design of
    Advanced Energy Systems Process Systems Engineering Framework (IDAES PSE
    Framework) Copyright (c) 2018-2019. See https://github.com/IDAES/idaes-pse.

This version of Ipopt was compiled using HSL, a collection of Fortran codes
    for large-scale scientific computation.  All technical papers, sales and
    publicity material resulting from use of the HSL codes within IPOPT must
    contain the following acknowledgement:
        HSL, a collection of Fortran codes for large-scale scientific
        computation. See http://www.hsl.rl.ac.uk.
******************************************************************************

This is Ipopt version 3.13.2, running with linear solver ma27.

Number of nonzeros in equality constraint Jacobian...:     1210
Number of nonzeros in inequality constraint Jacobian.:        0
Number of nonzeros in Lagrangian Hessian.............:     1376

Total number of variables............................:      480
                     variables with only lower bounds:      128
                variables with lower and upper bounds:      288
                     variables with only upper bounds:        0
Total number of equality constraints.................:      477
Total number of inequality constraints...............:        0
        inequality constraints with only lower bounds:        0
   inequality constraints with lower and upper bounds:        0
        inequality constraints with only upper bounds:        0

iter    objective    inf_pr   inf_du lg(mu)  ||d||  lg(rg) alpha_du alpha_pr  ls
   0  0.0000000e+00 1.52e+00 1.15e-14  -1.0 0.00e+00    -  0.00e+00 0.00e+00   0
   1  5.8037923e+00 1.27e+00 5.34e+05  -1.0 3.13e+06    -  6.27e-02 7.92e-02h  3
   2  9.6130804e+00 1.25e+00 6.82e+05  -1.0 1.16e+07    -  1.82e-02 1.17e-02h  3
   3  1.1049645e+02 9.12e-01 1.01e+07  -1.0 4.95e+07    -  7.00e-03 1.73e-02h  1
   4  1.1242000e+02 9.12e-01 1.01e+07  -1.0 3.07e+07    -  2.91e-02 3.45e-04h  1
   5  1.1241066e+02 9.12e-01 1.01e+07  -1.0 5.63e+07    -  2.30e-02 3.57e-05h  1
   6  1.0925769e+02 9.08e-01 1.12e+07  -1.0 4.38e+07    -  1.41e-02 3.42e-03f  3
   7  1.1880297e+02 8.98e-01 1.36e+07  -1.0 3.39e+07    -  3.71e-02 7.17e-03h  3
   8  1.9480649e+02 8.37e-01 1.44e+07  -1.0 2.66e+07    -  5.10e-02 1.71e-02h  2
   9  2.3242628e+02 8.26e-01 1.36e+07  -1.0 6.49e+07    -  2.20e-02 3.58e-03h  4
iter    objective    inf_pr   inf_du lg(mu)  ||d||  lg(rg) alpha_du alpha_pr  ls
  10  2.5716906e+02 8.22e-01 1.33e+07  -1.0 8.07e+07    -  1.88e-02 1.74e-03h  5
  11  2.6462347e+02 8.22e-01 1.33e+07  -1.0 9.18e+07    -  1.76e-02 4.39e-04h  7
  12  2.7299430e+02 8.21e-01 1.33e+07  -1.0 1.09e+08    -  1.48e-02 3.96e-04h  7
  13  2.8297493e+02 8.21e-01 1.33e+07  -1.0 2.25e+08    -  6.34e-03 2.09e-04h  7
  14  3.0548611e+02 8.12e-01 2.92e+07  -1.0 2.18e+07  -4.0 7.19e-03 7.60e-03h  4
  15  3.1532058e+02 8.08e-01 3.06e+07  -1.0 1.48e+07  -4.5 5.41e-04 4.43e-03h  4
  16  3.1536585e+02 8.08e-01 3.06e+07  -1.0 1.28e+07  -5.0 1.68e-01 2.39e-05h  1
  17  3.1227761e+02 8.05e-01 3.06e+07  -1.0 2.16e+07  -5.4 1.46e-01 3.67e-03f  4
  18  3.0373902e+02 8.03e-01 3.05e+07  -1.0 2.60e+07    -  7.99e-02 2.25e-03f  4
  19  3.2906299e+02 7.98e-01 3.13e+07  -1.0 2.44e+07    -  1.11e-01 5.50e-03h  4
iter    objective    inf_pr   inf_du lg(mu)  ||d||  lg(rg) alpha_du alpha_pr  ls
  20  3.8024658e+02 7.87e-01 3.38e+07  -1.0 3.52e+07    -  1.02e-01 7.24e-03h  4
  21  4.6455166e+02 7.73e-01 3.84e+07  -1.0 4.50e+07    -  8.76e-02 8.43e-03h  4
  22  5.9132356e+02 7.55e-01 4.51e+07  -1.0 5.62e+07    -  8.61e-02 8.98e-03h  4
  23  7.7148428e+02 7.36e-01 5.38e+07  -1.0 6.99e+07    -  8.92e-02 8.99e-03h  4
  24  1.3168220e+03 6.74e-01 9.85e+07  -1.0 8.74e+07    -  1.12e-01 1.76e-02h  3
  25  2.3538894e+03 6.26e-01 1.67e+08  -1.0 1.30e+08    -  1.06e-01 1.73e-02h  3
  26  3.2178064e+03 6.21e-01 1.89e+08  -1.0 1.90e+08    -  4.73e-01 8.07e-03h  4
  27  1.0473188e+05 4.03e+00 2.83e+11  -1.0 3.93e+08    -  2.50e-02 1.22e-01w  1
  28  1.1022164e+05 3.88e+00 2.83e+11  -1.0 5.46e+08  -5.9 4.52e-02 3.02e-03w  1
  29  9.9681270e+04 3.87e+00 2.83e+11  -1.0 4.04e+09    -  3.02e-04 7.30e-04w  1
iter    objective    inf_pr   inf_du lg(mu)  ||d||  lg(rg) alpha_du alpha_pr  ls
  30  1.5088032e+04 9.51e-01 8.74e+09  -1.0 3.57e+09    -  2.50e-02 3.04e-02h  2
  31  1.3705607e+04 9.49e-01 7.51e+09  -1.0 3.09e+08    -  1.30e-01 3.17e-03f  4
  32  1.2565498e+04 9.46e-01 5.70e+09  -1.0 2.60e+08    -  1.90e-01 3.28e-03f  4
  33  1.2111274e+04 9.45e-01 5.11e+09  -1.0 2.05e+08    -  4.66e-01 1.72e-03f  5
  34  1.1729527e+04 9.43e-01 3.96e+09  -1.0 1.47e+08    -  4.31e-01 2.05e-03f  4
  35  1.1392292e+04 9.41e-01 3.11e+09  -1.0 1.58e+08    -  4.59e-01 1.73e-03f  4
  36  9.3236145e+03 3.53e+00 4.52e+10  -1.0 1.37e+08    -  5.22e-01 1.31e-02f  1
  37  8.4620707e+03 3.51e+00 4.78e+10  -1.0 1.64e+08    -  5.08e-01 4.97e-03f  1
  38  4.6957691e+03 4.18e+00 1.15e+11  -1.0 1.34e+08    -  2.39e-01 3.20e-02f  1
  39  3.1074009e+03 4.65e+00 4.14e+10  -1.0 6.40e+07    -  1.23e-02 3.72e-02f  1
iter    objective    inf_pr   inf_du lg(mu)  ||d||  lg(rg) alpha_du alpha_pr  ls
  40  2.6867571e+03 4.61e+00 4.81e+10  -1.0 7.44e+07    -  2.00e-02 9.84e-03f  1
  41  1.5622745e+03 4.60e+00 1.22e+12  -1.0 1.51e+08  -2.8 2.92e-03 1.55e-02f  1
  42  1.5958744e+03 4.57e+00 1.11e+12  -1.0 7.33e+08  -1.4 7.78e-04 1.82e-04h  3
  43  1.5958745e+03 4.42e+00 1.11e+12  -1.0 2.15e+07   4.4 8.14e-09 3.23e-07f  2
  44  1.5960703e+03 4.53e+00 5.05e+12  -1.0 7.89e+06   3.9 1.25e-09 3.46e-04F  1
MA27BD returned iflag=-4 and requires more memory.
 Increase liw from 19240 to 38480 and la from 22500 to 46832 and factorize again.
  45  1.5962106e+03 4.41e+00 5.76e+12  -1.0 1.39e+07   3.4 1.52e-05 2.28e-04f  2
  46r 1.5962106e+03 4.41e+00 1.00e+03   0.6 0.00e+00   3.0 0.00e+00 4.38e-07R  9
  47r 1.5961945e+03 1.43e+01 1.00e+03   0.6 1.26e+04    -  1.26e-03 3.13e-03f  1
  48r 1.5961944e+03 1.43e+01 9.96e+02   0.6 1.63e+04    -  2.36e-03 5.95e-04f  1
  49r 1.5961944e+03 1.43e+01 1.02e+03   0.6 3.87e+03    -  1.28e-02 8.16e-04f  1
iter    objective    inf_pr   inf_du lg(mu)  ||d||  lg(rg) alpha_du alpha_pr  ls
  50r 1.5961939e+03 1.42e+01 1.03e+03   0.6 1.66e+03    -  8.81e-04 6.08e-03f  1
  51r 1.5961938e+03 1.42e+01 1.04e+03   0.6 1.85e+03    -  2.09e-02 2.22e-03f  1
  52r 1.5961931e+03 1.40e+01 1.03e+03   0.6 8.79e+02    -  1.77e-03 8.43e-03f  1
  53r 1.5961930e+03 1.39e+01 9.69e+02   0.6 5.51e+02    -  7.08e-02 6.74e-03f  1
  54r 1.5961922e+03 1.35e+01 9.63e+02   0.6 1.05e+02    -  7.70e-03 3.11e-02f  1
  55r 1.5961922e+03 1.34e+01 9.42e+02   0.6 9.42e+02    -  4.33e-03 6.73e-03f  1
  56r 1.5961922e+03 1.33e+01 2.89e+03   0.6 2.98e+02    -  1.89e-02 9.17e-03f  1
  57r 1.5961922e+03 1.29e+01 7.25e+03   0.6 4.92e+01    -  2.75e-01 2.58e-02f  1
  58r 1.5961922e+03 1.29e+01 1.10e+03   0.6 9.31e+00   4.0 5.26e-03 5.82e-03h  1
  59r 1.5961922e+03 1.27e+01 1.84e+03   0.6 8.37e+00   3.5 2.44e-03 3.82e-02h  1
iter    objective    inf_pr   inf_du lg(mu)  ||d||  lg(rg) alpha_du alpha_pr  ls
  60r 1.5961921e+03 1.27e+01 1.84e+03   0.6 1.71e+02    -  4.56e-03 9.12e-04f  1
  61r 1.5961922e+03 1.21e+01 7.46e+03   0.6 7.90e+00   3.0 5.20e-04 1.24e-01h  1
  62r 1.5961922e+03 1.21e+01 6.56e+03   0.6 8.49e+03    -  1.37e-04 5.35e-05f  1
  63r 1.5961922e+03 1.15e+01 3.28e+03   0.6 9.32e+01    -  2.66e-02 5.99e-03f  1
  64r 1.5961923e+03 1.06e+01 3.22e+03   0.6 6.17e+01    -  1.51e-02 1.55e-02f  1
  65r 1.5961923e+03 9.90e+00 3.38e+03   0.6 8.98e+00   2.6 5.45e-03 7.65e-02f  1
  66r 1.5961923e+03 9.46e+00 3.69e+03   0.6 6.24e+00   3.0 8.44e-03 1.24e-01h  1
  67r 1.5961923e+03 8.66e+00 1.09e+04   0.6 4.93e+00   2.5 1.40e-01 2.19e-01h  1
  68r 1.5961923e+03 8.41e+00 5.24e+03   0.6 4.17e+00   3.8 6.27e-02 9.95e-02h  1
  69r 1.5961923e+03 7.96e+00 2.77e+05   0.6 3.54e+00   3.4 9.29e-02 1.83e-01h  1
iter    objective    inf_pr   inf_du lg(mu)  ||d||  lg(rg) alpha_du alpha_pr  ls
  70r 1.5961923e+03 7.88e+00 6.05e+04   0.6 2.94e+00   4.7 1.27e-01 3.88e-02h  1
  71r 1.5961923e+03 6.78e+00 3.19e+04   0.6 2.83e+00   4.2 2.88e-01 5.78e-01h  1
  72r 1.5961923e+03 6.75e+00 5.07e+04   0.6 1.19e+00   4.6 1.45e-01 3.95e-02h  1
  73r 1.5961923e+03 6.45e+00 2.65e+04   0.6 1.14e+00   4.2 2.22e-01 3.89e-01h  1
  74r 1.5961923e+03 6.13e+00 2.72e+04   0.6 6.97e-01   4.6 2.26e-01 6.71e-01h  1
  75r 1.5961923e+03 6.11e+00 1.34e+05   0.6 2.30e-01   5.9 9.90e-01 1.84e-01h  1
  76r 1.5961923e+03 5.98e+00 5.28e+04   0.6 1.88e-01   5.4 9.36e-01 1.00e+00h  1
  77r 1.5961923e+03 5.98e+00 5.28e+03   0.6 3.04e-02   5.0 9.91e-01 1.00e+00f  1
  78r 1.5961923e+03 5.98e+00 3.62e+03   0.6 4.49e-02   5.4 7.74e-01 1.00e+00f  1
  79r 1.5961923e+03 5.97e+00 6.15e+02   0.6 7.40e-03   4.9 1.00e+00 1.00e+00f  1
iter    objective    inf_pr   inf_du lg(mu)  ||d||  lg(rg) alpha_du alpha_pr  ls
  80r 1.5961923e+03 5.97e+00 7.48e+02   0.6 2.07e-02   4.4 1.00e+00 1.00e+00f  1
  81r 1.5961923e+03 5.95e+00 5.75e+02   0.6 6.22e-02   4.0 1.00e+00 1.00e+00f  1
  82r 1.5961923e+03 5.92e+00 1.22e+03   0.6 1.87e-01   3.5 1.00e+00 4.93e-01f  1
  83r 1.5961923e+03 5.92e+00 1.01e+03   0.6 1.53e-02   4.8 1.00e+00 1.00e+00f  1
  84r 1.5961923e+03 5.91e+00 9.91e+02   0.6 5.48e-02   4.3 1.00e+00 1.00e+00f  1
  85r 1.5961923e+03 5.90e+00 1.05e+03   0.6 1.80e-02   4.8 1.00e+00 1.00e+00f  1
  86r 1.5961923e+03 5.89e+00 5.77e+02   0.6 2.96e-02   4.3 1.00e+00 1.00e+00f  1
  87r 1.5961923e+03 5.89e+00 5.77e+02   0.6 1.11e-02   4.7 1.00e+00 1.00e+00f  1
  88r 1.5961923e+03 5.88e+00 6.11e+02   0.6 3.34e-02   4.2 1.00e+00 1.00e+00f  1
  89r 1.5961923e+03 5.88e+00 6.80e+02   0.6 1.47e-02   4.7 1.00e+00 1.00e+00f  1
iter    objective    inf_pr   inf_du lg(mu)  ||d||  lg(rg) alpha_du alpha_pr  ls
  90r 1.5961923e+03 5.87e+00 5.78e+02   0.6 4.44e-02   4.2 1.00e+00 1.00e+00f  1
  91r 1.5961923e+03 5.83e+00 5.78e+02   0.6 1.13e-01   3.7 1.00e+00 1.00e+00f  1
  92r 1.5961923e+03 5.82e+00 5.78e+02   0.6 4.23e-02   4.1 1.00e+00 1.00e+00f  1
  93r 1.5961923e+03 5.78e+00 8.81e+02   0.6 1.27e-01   3.7 1.00e+00 1.00e+00f  1
  94r 1.5961923e+03 5.76e+00 5.78e+02   0.6 4.76e-02   4.1 1.00e+00 1.00e+00f  1
  95r 1.5961923e+03 5.76e+00 7.19e+02   0.6 2.22e-02   4.5 1.00e+00 1.00e+00f  1
  96r 1.5961923e+03 5.74e+00 5.78e+02   0.6 5.35e-02   4.0 1.00e+00 1.00e+00f  1
  97r 1.5961923e+03 5.69e+00 6.15e+02   0.6 1.71e-01   3.6 1.00e+00 1.00e+00f  1
  98r 1.5961923e+03 5.67e+00 5.93e+02   0.6 7.82e-02   4.0 1.00e+00 1.00e+00f  1
  99r 1.5961923e+03 5.65e+00 7.82e+02   0.6 1.77e-01   3.5 1.00e+00 2.88e-01f  1
iter    objective    inf_pr   inf_du lg(mu)  ||d||  lg(rg) alpha_du alpha_pr  ls
 100r 1.5961923e+03 5.60e+00 5.60e+02   0.6 5.06e-01   3.0 1.00e+00 3.26e-01f  1
 101r 1.5961923e+03 5.59e+00 5.41e+02   0.6 2.57e-02   4.4 1.00e+00 1.00e+00f  1
 102r 1.5961923e+03 5.59e+00 5.40e+02   0.6 1.19e-02   4.8 1.00e+00 1.00e+00h  1
 103r 1.5961923e+03 5.58e+00 5.40e+02   0.6 2.67e-02   4.3 1.00e+00 1.00e+00f  1
 104r 1.5961923e+03 5.55e+00 5.40e+02   0.6 8.01e-02   3.8 1.00e+00 1.00e+00f  1
 105r 1.5961923e+03 5.54e+00 5.89e+02   0.6 3.00e-02   4.3 1.00e+00 1.00e+00f  1
 106r 1.5961923e+03 5.54e+00 6.05e+02   0.6 1.26e-02   4.7 1.00e+00 1.00e+00f  1
 107r 1.5961923e+03 5.52e+00 5.40e+02   0.6 4.41e-02   4.2 1.00e+00 1.00e+00f  1
 108r 1.5961923e+03 5.49e+00 5.39e+02   0.6 1.01e-01   3.7 1.00e+00 1.00e+00f  1
 109r 1.5961923e+03 5.48e+00 5.39e+02   0.6 3.79e-02   4.2 1.00e+00 1.00e+00f  1
iter    objective    inf_pr   inf_du lg(mu)  ||d||  lg(rg) alpha_du alpha_pr  ls
 110r 1.5961923e+03 5.44e+00 5.37e+02   0.6 1.13e-01   3.7 1.00e+00 1.00e+00f  1
 111r 1.5961923e+03 5.39e+00 1.48e+03   0.6 3.35e-01   3.2 1.00e+00 3.66e-01f  1
 112r 1.5961923e+03 5.39e+00 9.99e+02   0.6 2.97e-02   4.5 1.00e+00 1.00e+00f  1
 113r 1.5961923e+03 5.37e+00 5.27e+02   0.6 4.70e-02   4.1 1.00e+00 1.00e+00h  1
 114r 1.5961923e+03 5.36e+00 5.24e+02   0.6 1.75e-02   4.5 1.00e+00 1.00e+00f  1
 115r 1.5961923e+03 5.34e+00 5.14e+02   0.6 5.15e-02   4.0 1.00e+00 1.00e+00f  1
 116r 1.5961923e+03 5.30e+00 6.12e+02   0.6 1.38e-01   3.5 1.00e+00 6.47e-01f  1
 117r 1.5961923e+03 5.29e+00 1.57e+03   0.6 1.61e-02   4.9 1.00e+00 1.00e+00f  1
 118r 1.5961923e+03 5.29e+00 2.34e+03   0.6 1.91e-02   5.3 6.85e-01 7.11e-01f  1
 119r 1.5961923e+03 5.29e+00 1.79e+03   0.6 9.75e-03   4.8 1.00e+00 1.88e-01F  1
iter    objective    inf_pr   inf_du lg(mu)  ||d||  lg(rg) alpha_du alpha_pr  ls
 120r 1.5961923e+03 5.28e+00 4.95e+02   0.6 2.14e-02   4.3 1.00e+00 1.00e+00f  1
 121r 1.5961923e+03 5.27e+00 3.47e+02   0.6 1.97e-02   4.7 1.00e+00 1.00e+00f  1
 122r 1.5961923e+03 5.26e+00 5.30e+02   0.6 2.83e-02   4.3 9.17e-01 1.00e+00h  1
 123r 1.5961923e+03 5.25e+00 3.27e+02   0.6 6.56e-03   4.7 1.00e+00 1.00e+00f  1
 124r 1.5961923e+03 5.23e+00 3.27e+02   0.6 3.79e-02   4.2 1.00e+00 1.00e+00f  1
 125r 1.5961923e+03 5.18e+00 9.81e+02   0.6 5.91e-02   3.7 1.00e+00 1.00e+00f  1
 126r 1.5961923e+03 5.01e+00 3.27e+02   0.6 1.77e-01   3.3 1.00e+00 1.00e+00f  1
 127r 1.5961923e+03 4.76e+00 6.09e+02   0.6 5.34e-01   2.8 1.00e+00 4.95e-01f  1
 128r 1.5961923e+03 6.01e+00 1.18e+05   0.6 1.48e-01   4.1 1.00e+00 9.75e-01f  1
 129r 1.5961923e+03 4.72e+00 3.42e+05   0.6 1.48e-01   3.6 2.10e-01 3.03e-01f  1
iter    objective    inf_pr   inf_du lg(mu)  ||d||  lg(rg) alpha_du alpha_pr  ls
 130r 1.5961923e+03 4.81e+00 4.62e+05   0.6 1.74e-01   4.1 3.76e-01 2.92e-01f  1
 131r 1.5961923e+03 4.68e+00 2.39e+05   0.6 8.76e-02   3.6 1.00e+00 4.44e-01f  1
 132r 1.5961923e+03 4.45e+00 2.22e+05   0.6 2.53e-01   3.1 3.95e-01 9.43e-01f  1
 133r 1.5961923e+03 4.45e+00 3.16e+05   0.6 3.92e+00   3.5 9.47e-03 2.40e-02f  1
 134r 1.5961923e+03 4.51e+00 4.69e+05   0.6 2.85e-01   3.1 3.90e-01 6.78e-01f  1
 135r 1.5961923e+03 4.25e+00 4.33e+05   0.6 2.55e+00   2.6 5.82e-04 1.59e-02f  1
 136r 1.5961923e+03 4.25e+00 1.86e+05   0.6 1.07e-01   4.8 3.97e-01 5.38e-01h  1
 137r 1.5961923e+03 4.25e+00 1.91e+04   0.6 2.80e-02   5.2 8.10e-01 7.48e-01f  1
 138r 1.5961923e+03 4.25e+00 1.35e+04   0.6 3.01e-02   4.8 7.12e-01 5.09e-01h  1
 139r 1.5961923e+03 4.23e+00 1.62e+04   0.6 5.09e-02   4.3 9.62e-01 9.09e-01h  1
iter    objective    inf_pr   inf_du lg(mu)  ||d||  lg(rg) alpha_du alpha_pr  ls
 140r 1.5961923e+03 4.18e+00 3.30e+03   0.6 5.07e-02   3.8 7.75e-01 1.00e+00f  1
 141r 1.5961923e+03 4.18e+00 2.24e+03   0.6 7.55e-02   5.1 8.95e-01 1.00e+00f  1
 142r 1.5961923e+03 4.18e+00 1.14e+03   0.6 2.84e-02   4.7 1.00e+00 5.09e-01f  1
 143r 1.5961923e+03 4.16e+00 3.29e+02   0.6 6.04e-02   4.2 1.00e+00 1.00e+00f  1
 144r 1.5961923e+03 4.10e+00 1.52e+03   0.6 1.13e-01   3.7 1.00e+00 1.00e+00f  1
 145r 1.5961923e+03 3.91e+00 2.54e+03   0.6 1.93e-01   3.2 1.00e+00 1.00e+00f  1
 146  1.5975081e+03 3.90e+00 6.93e+03  -1.0 5.10e+06    -  1.06e-02 3.43e-03h  1
 147  1.5975232e+03 3.90e+00 6.94e+03  -1.0 5.44e+06    -  3.56e-02 8.01e-05h  1
 148  1.5967872e+03 3.89e+00 1.14e+04  -1.0 5.78e+06    -  3.58e-02 1.96e-03f  2
 149  1.5952199e+03 3.89e+00 1.29e+05  -1.0 5.75e+06    -  6.04e-04 1.91e-03F  1
iter    objective    inf_pr   inf_du lg(mu)  ||d||  lg(rg) alpha_du alpha_pr  ls
 150  1.5924981e+03 3.87e+00 2.29e+05  -1.0 5.53e+06    -  2.71e-02 5.19e-03f  1
 151  1.5861252e+03 3.81e+00 3.72e+05  -1.0 5.23e+06    -  2.26e-02 1.34e-02f  1
 152  1.5895206e+03 3.80e+00 1.14e+06  -1.0 1.36e+07    -  1.56e-03 2.77e-03h  5
 153r 1.5895206e+03 3.80e+00 9.99e+02   0.6 0.00e+00   2.5 0.00e+00 2.38e-08R  2
 154r 1.5895205e+03 1.14e+00 9.97e+02   0.6 2.44e+03    -  2.45e-03 1.55e-03f  1
 155  1.5706964e+03 1.45e+00 5.49e+03  -1.0 7.98e+07    -  1.69e-03 4.96e-03f  1
 156  1.5711623e+03 1.38e+00 4.04e+03  -1.0 4.72e+07    -  1.56e-02 6.97e-04h  5
 157  1.5714782e+03 1.13e+00 2.24e+03  -1.0 3.69e+07    -  2.20e-02 8.38e-04h  5
 158  1.5739646e+03 1.13e+00 5.15e+03  -1.0 3.03e+07    -  2.19e-02 7.66e-03h  2
 159  1.5737216e+03 1.12e+00 5.31e+03  -1.0 1.07e+07    -  2.10e-02 1.37e-03f  5
iter    objective    inf_pr   inf_du lg(mu)  ||d||  lg(rg) alpha_du alpha_pr  ls
 160  1.5737069e+03 1.12e+00 5.31e+03  -1.0 9.88e+06    -  2.24e-01 5.49e-05h  9
 161  1.5606108e+03 1.04e+01 1.13e+13  -1.0 9.80e+06    -  1.39e-02 1.49e-02f  1
WARNING: Problem in step computation; switching to emergency mode.
 162r 1.5606108e+03 1.04e+01 1.00e+03   1.0 0.00e+00  19.9 0.00e+00 0.00e+00R  1
 163r 1.5606108e+03 1.04e+01 1.12e+04   1.0 1.04e+04    -  7.41e-02 9.90e-04f  1
 164r 1.5606108e+03 1.04e+01 4.88e+13   1.0 2.81e-01   3.5 7.72e-01 3.60e-01f  1
WARNING: Problem in step computation; switching to emergency mode.
 165r 1.5606108e+03 1.04e+01 4.88e+13   1.0 2.81e-01  19.2 0.00e+00 0.00e+00R  1
WARNING: Problem in step computation; switching to emergency mode.
Restoration phase is called at point that is almost feasible,
  with constraint violation 0.000000e+00. Abort.
Restoration phase in the restoration phase failed.

Number of Iterations....: 165

                                   (scaled)                 (unscaled)
Objective...............:   1.5606107925478771e+03    1.5606107925478771e+03
Dual infeasibility......:   4.8806300328411750e+13    4.8806300328411750e+13
Constraint violation....:   1.0402485666440153e+01    1.0402485666440153e+01
Complementarity.........:   2.7272212844589632e+06    2.7272212844589632e+06
Overall NLP error.......:   4.6934720732943766e+13    4.8806300328411750e+13


Number of objective function evaluations             = 350
Number of objective gradient evaluations             = 65
Number of equality constraint evaluations            = 350
Number of inequality constraint evaluations          = 0
Number of equality constraint Jacobian evaluations   = 168
Number of inequality constraint Jacobian evaluations = 0
Number of Lagrangian Hessian evaluations             = 166
Total CPU secs in IPOPT (w/o function evaluations)   =      0.254
Total CPU secs in NLP function evaluations           =      4.048

EXIT: Restoration Failed!
